c Reduced graph for GEOM40a generated by Cyril Grelier
p edge 34 124
e 1 2
e 1 14
e 1 16
e 1 18
e 1 24
e 1 27
e 1 30
e 1 32
e 2 7
e 2 14
e 2 18
e 2 28
e 2 30
e 2 32
e 3 10
e 3 11
e 3 20
e 3 21
e 3 29
e 5 6
e 5 8
e 5 9
e 5 10
e 5 12
e 5 17
e 5 23
e 5 25
e 5 26
e 5 31
e 5 33
e 6 9
e 6 10
e 6 12
e 6 13
e 6 17
e 6 19
e 6 23
e 6 26
e 6 31
e 6 34
e 7 11
e 7 14
e 7 15
e 7 28
e 8 22
e 8 25
e 8 26
e 8 31
e 9 10
e 9 12
e 9 13
e 9 17
e 9 19
e 9 26
e 9 31
e 9 34
e 10 12
e 10 17
e 10 20
e 10 23
e 10 26
e 10 31
e 11 15
e 11 20
e 11 21
e 11 28
e 11 29
e 12 13
e 12 17
e 12 19
e 12 23
e 12 25
e 12 26
e 12 33
e 12 34
e 13 17
e 13 19
e 13 34
e 14 15
e 14 18
e 14 28
e 15 21
e 15 28
e 15 29
e 16 18
e 16 22
e 16 24
e 16 27
e 16 30
e 16 32
e 17 19
e 17 23
e 17 33
e 17 34
e 18 22
e 18 24
e 18 27
e 18 30
e 18 32
e 19 33
e 19 34
e 20 21
e 20 29
e 20 31
e 21 29
e 22 24
e 22 27
e 22 30
e 22 32
e 23 25
e 23 26
e 23 31
e 23 33
e 24 27
e 24 30
e 24 32
e 25 26
e 25 33
e 26 31
e 26 33
e 27 30
e 27 32
e 28 29
e 30 32
